30 118 22 190 137 110 168 108 159 186 11 113 178 152 7 157 36 90 65 174 199 145 32 133 122 176 3 188 73 134 194 164 13 68 172 53 37 161 40 42 117 98 23 56 16 47 140 92 105 101 59 14 87 39 160 76 43 183 103 25 50 177 26 83 12 52 116 69 165 198 196 79 158 141 124 71 154 99 191 95 81 61 115 85 150 27 8 5 70 153 192 2 55 17 67 66 109 139 44 19 86 77 46 156 187 1 60 35 72 64 142 0 29 9 63 163 24 75 166 96 125 114 147 179 49 127 74 102 10 173 132 80 119 175 6 189 57 31 197 93 91 34 84 195 130 181 155 171 144 89 169 41 193 88 33 123 4 131 21 120 106 58 162 20 62 107 149 82 112 94 121 136 126 28 170 129 146 148 54 143 128 45 138 104 48 97 111 167 51 184 100 38 151 15 135 18 78 185 180 182